data/instances/vrp_files/train_43.vrp
NAME : 43
COMMENT : Generated instance No. 43
TYPE : CVRP
DIMENSION : 21
EDGE_WEIGHT_TYPE : EUC_2D
CAPACITY : 30
NODE_COORD_SECTION
 1 8 997
 2 588 375
 3 285 203
 4 761 386
 5 511 492
 6 577 865
 7 980 407
 8 827 764
 9 573 956
 10 200 109
 11 853 439
 12 846 893
 13 62 883
 14 448 510
 15 626 926
 16 19 476
 17 687 722
 18 692 134
 19 299 358
 20 804 278
 21 210 957
DEMAND_SECTION
1 0
2 8
3 10
4 1
5 8
6 7
7 7
8 3
9 1
10 4
11 9
12 5
13 1
14 5
15 8
16 8
17 5
18 9
19 1
20 4
21 3
DEPOT_SECTION
 1
 -1
EOF